letting initialStacks = [6, 38, 13, 44, 26, 12, 23, 40, 14, 5, 2, 3, 9, 45, 47, 16, 4, 1, 27, 8, 46, 48, 32, 37, 11, 31, 34, 25, 39, 10, 35, 51, 7, 18, 49, 33, 24, 43, 30, 50, 22, 19, 28, 41, 20, 15, 36, 21, 29, 17, 42]
